 50   0   0   0   0   0   0   0   0   0   0   0   0   0   0   0   0   0   0   0   0   0   0   0   0   0   0   0   0   0   0   0   0   0   0   0   0   0   0   0   0   0   0   0   0   0   0   0   0   0   0   0   0   0   0   0   0   0   0   0   0   0   0   0   0   0   0   0   0   0   0   0   0   0   0   0   0   0   0   0   0   0   0   0   0   0   0   0   0   0   0   0   0   0   0   0   0   0   0   0   0   0   0   0   0   0   0   0   0   0   0   0   0   0   0   0   0   0   0   0   0   0   0   0   0   0   0   0   0   0   0   0   0   0   0   0   0   0   0   0   0   0   0   0   0   0   0   0   0   0   0   0   0   0   0   0   0   0   0   0   0   0   0   0   0   0   0   0   0   0   0   0   0   0   0   0   0   0   0   0   0   0   0   0   0   0   0   0   0   0   0   0   0   0   0   0   0   0   0   0   0   0   0   0   0   0   0   0   0   0   0   0   0   0   0   0   0   0   0   0   0   0   0   0   0   0   0   0   0   0   0   0   0   0   0   0   0   0   0   0   0   0   0   0   0   0   0   0   0   0   0   0   0   0   0   0   0   0   0   0   0   0   0   0   0   0   0   0   0   0   0   0   0   0   0   0   0   0   0   0   0   0   0   0   0   0   0   0   0   0   0   0   0   0   0   0   0   0   0   0   0   0   0   0   0   0   0   0   0   0   0   0   0   0   0   0   0   0   0   0   0   0   0   0   0   0   0   0   0   0   0   0   0   0   0   0   0   0   0   0   0   0   0   0   0   0   0   0   0   0   0   0   0   0   0   0   0   0   0   0   0   0   0   0   0   0   0   0   0   0   0   0   0   0   0   0   0   0   0   0   0   0   0   0   0   0   0   0   0   0   0   0   0   0   0   0   0   0   0   0   0   0   0   0   0   0   0   0   0   0   0   0   0   0   0   0   0   0   0   0   0   0   0   0   0   0   0   0   0   0   0   0   0   0   0   0   0   0   0   0   0   0   0   0   0   0   0   0   0   0   0   0   0   0   0   0   0   0   0   0   0   0   0   0   0   0   0   0   0   0   0   0   0   0   0   0   0   0   0   0   0   0   0   0   0   0   0   0   0   0   0   0   0   0   0   0   0   0   0   0   0   0   0   0   0   0   0   0   0   0   0   0   0   0   0   0   0   0   0   0   0   0   0   0   0   0   0   0   0   0   0   0   0   0   0   0   0   0   0   0   0   0   0   0   0   0   0   0   0   0   0   0   0   0   0   0   0   0   0   0   0   0   0   0   0   0   0   0   0   0   0   0   0   0   0   0   0   0   0   0   0   0   0   0   0   0   0   0   0   0   0   0   0   0   0   0   0   0   0   0   0   0   0   0   0   0   0   0   0   0   0   0   0   0   0   0   0   0   0   0   0   0   0   0   0   0   0   0   0   0   0   0   0   0   0   0   0   0   0   0   0   0   0   0   0   0   0   0   0   0   0   0   0   0   0   0   0   0   0   0   0   0   0   0   0   0   0   0   0   0   0   0   0   0   0   0   0   0   0   0   0   0   0   0   0   0   0   0   0   0   0   0   0   0   0   0   0   0   0   0   0   0   0   0   0   0   0   0   0   0   0   0   0   0   0   0   0   0   0   0   0   0   0   0   0   0   0   0   0   0   0   0   0   0   0   0   0   0   0   0   0   0   0   0   0   0   0   0   0   0   0   0   0   0   0   0   0   0   0   0   0   0   0   0   0   0   0   0   0   0   0   0   0   0   0   0   0   0   0   0   0   0   0   0   0   0   0   0   0   0   0   0   0   0   0   0   0   0   0   0   0   0   0   0   0   0   0   0   0   0   0   0   0   0   0   0   0   0   0   0   0   0   0   0   0   0   0   0   0   0   0   0   0   0   0   0   0   0   0   0   0   0   0   0   0   0   0   0   0   0   0   0   0   0   0   0   0   0   0   0   0   0   0   0   0   0   0   0   0   0   0   0   0   0   0   0   0   0   0   0   0   0   0   0   0   0   0   0   0   0   0   0   0   0   0   0   0   0   0   0   0   0   0   0   0   0   0   0   0   0   0   0   0   0   0   0   0   0   0   0   0   0   0   0   0   0   0   0   0   0   0   0   0   0   0   0   0   0   0   0   0   0   0   0   0   0   0   0   0   0   0   0   0   0   0   0   0   0   0   0   0   0   0   0   0   0   0   0   0   0   0   0   0   0   0   0   0   0   0   0   0   0   0   0   0   0   0   0   0   0   0   0   0   0   0   0   0   0   0   0 
REMAINING SPACE:      0
ACCUMULATED PRIORITY: 4450
EXECUTION TIME:       0.000193600
QTY PRI VAL
[50]  89  10
[0]  97  11
[0]  86  10
[0]  94  11
[0]  90  11
[0]  85  11
[0]  92  12
[0]  83  11
[0]  87  13
[0]  99  15
[0]  65  10
[0]  71  12
[0]  82  14
[0]  63  11
[0]  80  14
[0]  57  10
[0]  65  12
[0]  75  14
[0]  64  12
[0]  56  11
[0]  61  12
[0]  90  18
[0]  89  18
[0]  84  17
[0]  76  16
[0]  87  19
[0]  73  16
[0]  73  16
[0]  77  17
[0]  86  19
[0]  81  18
[0]  81  18
[0]  48  11
[0] 100  23
[0]  91  21
[0]  81  19
[0] 100  24
[0]  91  22
[0]  94  23
[0]  81  20
[0]  60  15
[0]  98  26
[0]  55  15
[0]  95  26
[0]  68  19
[0]  70  20
[0]  94  27
[0]  51  15
[0]  84  25
[0]  90  27
[0]  79  24
[0]  67  21
[0]  93  31
[0]  94  32
[0]  99  34
[0]  94  33
[0]  34  12
[0]  65  23
[0]  65  23
[0]  76  27
[0]  45  16
[0]  70  25
[0]  95  34
[0]  69  25
[0]  55  20
[0]  66  24
[0]  84  31
[0]  94  35
[0]  71  27
[0]  98  38
[0]  90  35
[0]  77  30
[0]  25  10
[0]  57  23
[0]  90  37
[0]  34  14
[0]  99  41
[0]  62  26
[0]  69  29
[0]  91  39
[0]  94  41
[0]  59  26
[0]  47  21
[0]  69  31
[0]  42  19
[0]  95  43
[0]  66  30
[0]  57  26
[0]  46  21
[0]  85  39
[0]  61  28
[0]  37  17
[0]  64  30
[0]  34  16
[0]  48  23
[0]  29  14
[0]  87  43
[0] 100  50
[0]  60  30
[0]  78  39
[0]  71  36
[0]  70  36
[0]  81  42
[0]  42  22
[0]  63  33
[0]  99  52
[0]  99  52
[0]  38  20
[0]  55  29
[0]  28  15
[0]  96  52
[0]  83  45
[0]  64  35
[0]  93  51
[0]  65  36
[0]  84  47
[0]  84  47
[0]  80  45
[0]  94  54
[0]  43  25
[0]  91  53
[0]  53  31
[0]  29  17
[0]  63  37
[0]  90  53
[0]  84  50
[0]  57  34
[0]  62  37
[0]  45  27
[0]  91  55
[0]  66  40
[0]  92  56
[0]  18  11
[0]  92  57
[0] 100  62
[0]  74  46
[0]  85  53
[0]  40  25
[0]  96  60
[0]  22  14
[0]  69  44
[0]  36  23
[0]  78  50
[0]  92  59
[0]  98  63
[0]  87  56
[0]  87  56
[0]  80  52
[0]  26  17
[0]  84  55
[0]  61  40
[0]  65  43
[0]  74  49
[0]  93  62
[0]  91  61
[0]  91  61
[0]  98  66
[0]  49  33
[0]  81  55
[0]  72  49
[0]  85  58
[0]  63  43
[0]  83  57
[0] 100  69
[0]  92  64
[0]  67  47
[0]  57  40
[0]  88  62
[0]  66  47
[0]  91  65
[0]  25  18
[0]  68  49
[0]  29  21
[0]  51  37
[0]  99  72
[0]  99  73
[0]  65  48
[0]  67  50
[0]  85  64
[0]  98  74
[0]  95  72
[0]  83  63
[0]  83  63
[0]  42  32
[0]  30  23
[0]  91  70
[0]  78  60
[0] 100  77
[0]  22  17
[0]  97  75
[0]  99  77
[0]  96  75
[0]  92  72
[0]  84  66
[0]  84  66
[0]  62  49
[0]  83  66
[0]  59  47
[0]  64  52
[0]  75  61
[0]  87  71
[0]  45  37
[0]  90  74
[0]  96  79
[0]  74  61
[0]  52  43
[0]  70  58
[0]  83  69
[0]  99  83
[0]  76  64
[0]  65  55
[0]  66  56
[0]  55  47
[0]  83  71
[0]  73  63
[0]  67  58
[0]  61  53
[0]  16  14
[0]  72  63
[0]  97  85
[0]  68  60
[0]  87  77
[0]  79  70
[0]  76  68
[0]  89  80
[0]  41  37
[0]  62  56
[0]  62  56
[0]  84  76
[0]  63  57
[0]  95  86
[0]  97  88
[0]  87  79
[0]  68  62
[0]  52  48
[0]  69  64
[0]  74  69
[0]  45  42
[0]  48  45
[0]  98  92
[0]  71  67
[0]  73  69
[0]  74  70
[0]  98  93
[0]  60  57
[0]  47  45
[0]  26  25
[0]  88  85
[0]  94  91
[0]  97  94
[0]  98  95
[0]  34  33
[0]  38  37
[0]  92  90
[0]  96  94
[0]  49  48
[0]  99  97
[0]  59  58
[0]  75  74
[0]  83  82
[0]  83  82
[0]  72  72
[0]  69  69
[0]  21  21
[0]  70  71
[0]  66  67
[0]  61  62
[0]  73  75
[0]  64  66
[0]  28  29
[0]  27  28
[0]  53  55
[0]  99 104
[0]  38  40
[0]  76  80
[0]  53  56
[0]  82  87
[0]  32  34
[0]  79  84
[0]  88  94
[0]  82  88
[0]  95 102
[0]  54  58
[0]  40  43
[0]  24  26
[0]  67  73
[0]  87  95
[0]  74  81
[0]  63  69
[0]  47  52
[0]  83  92
[0]  87  97
[0]  83  93
[0]  99 111
[0]  51  58
[0]  42  48
[0]  21  24
[0]  78  90
[0]  32  37
[0]  19  22
[0] 100 116
[0]  62  72
[0]  30  35
[0]  83  97
[0]  46  54
[0]  99 117
[0]  80  95
[0]  94 112
[0]  99 118
[0]  83  99
[0]  71  85
[0]  71  85
[0]  88 106
[0]  68  82
[0]  33  40
[0]  94 114
[0]  14  17
[0]  97 118
[0]  99 121
[0]  30  37
[0]  68  84
[0]  29  36
[0]  91 113
[0]  33  41
[0]  76  95
[0]  92 116
[0]  74  94
[0]  59  75
[0]  69  88
[0]  64  82
[0]  92 118
[0]  78 101
[0]  44  57
[0]  81 105
[0]  23  30
[0]  42  55
[0]  51  67
[0]  35  46
[0]  68  90
[0]  89 118
[0]  82 109
[0]  85 113
[0]  94 125
[0]  66  88
[0]  92 123
[0]  80 107
[0]  64  86
[0]  61  82
[0]  81 109
[0]  81 109
[0]  69  93
[0]  86 116
[0]  17  23
[0]  93 126
[0]  90 122
[0]  50  68
[0]  61  83
[0]  77 105
[0]  19  26
[0]  92 126
[0] 100 137
[0]  82 113
[0]  98 136
[0]  98 136
[0]  98 136
[0] 100 139
[0]  68  95
[0]  30  42
[0]  95 134
[0]  80 113
[0]  80 113
[0]  55  78
[0]  62  88
[0]  33  47
[0]  60  86
[0]  85 122
[0]  85 123
[0]  76 110
[0]  82 119
[0]  31  45
[0]  73 106
[0]  35  51
[0]  43  63
[0]  62  91
[0]  62  91
[0] 100 147
[0]  65  96
[0]  68 101
[0]  70 104
[0]  72 107
[0]  74 111
[0]  48  72
[0]  48  72
[0]  84 127
[0]  66 100
[0]  64  97
[0]  50  76
[0]  63  96
[0]  93 142
[0]  47  72
[0]  77 118
[0]  92 141
[0]  66 102
[0]  85 132
[0]  56  87
[0]  83 129
[0]  88 137
[0]  91 142
[0]  92 144
[0]  58  91
[0]  77 121
[0]  96 151
[0]  65 103
[0]  94 149
[0]  78 124
[0]  59  94
[0]  42  67
[0]  20  32
[0]  75 120
[0]  87 140
[0]  67 108
[0] 100 162
[0]  97 158
[0]  81 132
[0]  98 160
[0]  63 103
[0]  88 144
[0]  48  79
[0]  88 145
[0]  91 150
[0]  57  94
[0]  46  76
[0]  85 141
[0]  91 151
[0]  56  93
[0]  89 148
[0]  92 153
[0]  12  20
[0]  75 125
[0]  82 137
[0]  64 107
[0]  61 102
[0]  80 134
[0]  62 104
[0]  84 141
[0] 100 168
[0]  98 165
[0]  73 123
[0]  16  27
[0]  91 154
[0]  82 139
[0]  63 107
[0]  93 158
[0]  98 167
[0]  85 145
[0]  76 130
[0]  59 101
[0]  21  36
[0]  18  31
[0]  70 121
[0]  85 147
[0]  26  45
[0]  53  92
[0]  19  33
[0]  65 113
[0]  65 113
[0]  27  47
[0]  72 126
[0]  96 168
[0]  28  49
[0]  81 142
[0]  91 160
[0]  83 146
[0]  38  67
[0]  34  60
[0]  90 159
[0]  43  76
[0]  35  62
[0]  98 174
[0]  58 103
[0] 100 178
[0]  37  66
[0]  80 143
[0]  82 147
[0]  69 124
[0]  96 173
[0]  66 119
[0]  62 112
[0]  88 159
[0]  58 105
[0]  59 107
[0]  81 147
[0]  99 181
[0]  48  88
[0]  97 178
[0]  49  90
[0]  72 133
[0]  86 160
[0]  79 147
[0]  72 134
[0]  84 157
[0]  54 101
[0]  54 101
[0]  67 126
[0]  63 119
[0]  54 102
[0]  83 157
[0]  78 148
[0]  49  93
[0]  49  93
[0]  50  95
[0]  42  80
[0]  89 170
[0]  82 157
[0]  36  69
[0]  97 187
[0]  42  81
[0]  70 135
[0]  14  27
[0]  58 112
[0]  47  91
[0]  79 153
[0]  99 192
[0]  51  99
[0]  89 173
[0]  61 119
[0]  90 176
[0]  46  90
[0]  92 180
[0]  98 195
[0]  99 198
[0]  78 156
[0]  94 188
[0]  48  96
[0]  14  28
[0]  32  64
[0]  99 198
[0]  48  96
[0]  97 194
[0]  89 179
[0]  47  95
[0]  93 188
[0]  86 174
[0]  85 172
[0]  71 144
[0]  95 193
[0]  89 181
[0]  58 118
[0]  54 110
[0]  87 178
[0]  52 107
[0]  86 177
[0]  80 165
[0]  80 165
[0]  89 184
[0]  93 193
[0]  79 164
[0]  77 160
[0]  51 106
[0]  71 148
[0]  34  71
[0]  88 184
[0]  27  57
[0]  61 129
[0]  77 163
[0]  68 144
[0]  49 104
[0]  88 187
[0]  86 183
[0]  68 145
[0]  34  73
[0]  93 200
[0]  69 149
[0]  91 197
[0]  59 128
[0]  90 196
[0]  11  24
[0]  55 120
[0]  67 147
[0]  36  79
[0]  87 191
[0]  40  88
[0]  20  44
[0]  34  75
[0]  53 117
[0]  24  53
[0]  24  53
[0]  90 199
[0]  51 113
[0]  22  49
[0]  47 105
[0]  68 152
[0]  24  54
[0]  24  54
[0]  68 153
[0]  35  79
[0]  81 183
[0]  49 111
[0]  45 102
[0]  75 170
[0]  40  91
[0]  65 148
[0]  65 148
[0]  43  98
[0]  50 114
[0]  25  57
[0]  83 190
[0]  65 150
[0]  59 137
[0]  65 151
[0]  74 173
[0]  47 110
[0]  36  85
[0]  77 182
[0]  11  26
[0]  82 194
[0]  41  97
[0]  69 164
[0]  37  88
[0]  39  93
[0]  33  79
[0]  63 151
[0]  42 101
[0]  39  94
[0]  71 172
[0]  26  63
[0]  33  80
[0]  48 117
[0]  80 195
[0]  70 172
[0]  65 160
[0]  73 180
[0]  62 153
[0]  47 116
[0]  19  47
[0]  38  94
[0]  46 114
[0]  31  77
[0]  41 102
[0]  65 162
[0]  53 133
[0]  45 113
[0]  58 146
[0]  59 149
[0]  17  43
[0]  60 152
[0]  43 109
[0]  69 176
[0]  18  46
[0]  25  64
[0]  32  82
[0]  41 106
[0]  70 181
[0]  51 132
[0]  25  65
[0]  55 145
[0]  64 169
[0]  32  85
[0]  56 149
[0]  68 181
[0]  39 104
[0]  69 184
[0]  27  72
[0]  21  56
[0]  68 182
[0]  31  83
[0]  49 132
[0]  62 168
[0]  45 122
[0]  61 166
[0]  70 191
[0]  38 104
[0]  42 115
[0]  46 126
[0]  71 196
[0]  67 185
[0]  63 174
[0]  23  64
[0]  23  64
[0]  61 170
[0]  47 131
[0]  43 120
[0]  43 120
[0]  53 148
[0]  63 176
[0]  44 123
[0]  21  59
[0]  58 163
[0]  69 195
[0]  35  99
[0]  66 187
[0]  44 125
[0]  27  77
[0]  46 132
[0]  49 141
[0]  18  52
[0]  11  32
[0]  56 163
[0]  68 198
[0]  65 190
[0]  51 150
[0]  55 162
[0]  58 171
[0]  58 171
[0]  42 124
[0]  26  77
[0]  55 163
[0]  55 163
[0]  31  92
[0]  66 196
[0]  38 114
[0]  16  48
[0]  57 173
[0]  46 140
[0]  54 165
[0]  53 162
[0]  44 135
[0]  38 117
[0]  25  77
[0]  37 114
[0]  61 188
[0]  61 189
[0]  62 193
[0]  25  78
[0]  48 150
[0]  55 172
[0]  43 135
[0]  28  88
[0]  55 173
[0]  40 126
[0]  57 180
[0]  47 149
[0]  51 162
[0]  55 175
[0]  54 172
[0]  29  93
[0]  46 148
[0]  50 161
[0]  57 184
[0]  24  78
[0]  40 130
[0]  20  65
[0]  31 101
[0]  23  75
[0]  61 199
[0]  34 111
[0]  56 183
[0]  41 134
[0]  55 180
[0]  25  82
[0]  48 158
[0]  58 191
[0]  46 152
[0]  56 186
[0]  31 103
[0]  55 183
[0]  15  50
[0]  49 164
[0]  25  84
[0]  35 118
[0]  40 135
[0]  51 173
[0]  35 119
[0]  50 171
[0]  53 183
[0]  50 174
[0]  12  42
[0]  16  56
[0]  55 193
[0]  39 137
[0]  46 162
[0]  46 162
[0]  21  74
[0]  15  53
[0]  46 163
[0]  27  96
[0]  49 175
[0]  35 125
[0]  32 115
[0]  37 133
[0]  45 162
[0]  26  94
[0]  21  76
[0]  24  87
[0]  51 185
[0]  51 186
[0]  24  88
[0]  34 125
[0]  25  93
[0]  45 169
[0]  25  94
[0]  26  98
[0]  35 132
[0]  29 110
[0]  49 189
[0]  43 166
[0]  19  74
[0]  33 129
[0]  11  43
[0]  38 150
[0]  22  87
[0]  18  72
[0]  30 120
[0]  34 136
[0]  48 194
[0]  49 199
[0]  42 171
[0]  23  94
[0]  44 180
[0]  43 177
[0]  33 136
[0]  45 186
[0]  27 112
[0]  38 158
[0]  41 172
[0]  14  59
[0]  27 114
[0]  44 186
[0]  17  72
[0]  42 179
[0]  44 188
[0]  42 180
[0]  34 146
[0]  34 146
[0]  39 168
[0]  42 181
[0]  39 169
[0]  34 148
[0]  27 118
[0]  10  44
[0]  44 194
[0]  39 173
[0]  39 173
[0]  39 173
[0]  30 134
[0]  17  76
[0]  38 171
[0]  26 117
[0]  37 167
[0]  16  73
[0]  40 183
[0]  40 184
[0]  26 120
[0]  11  51
[0]  36 167
[0]  18  84
[0]  27 126
[0]  16  75
[0]  26 122
[0]  20  94
[0]  24 113
[0]  40 190
[0]  39 186
[0]  18  86
[0]  23 110
[0]  14  67
[0]  36 174
[0]  32 155
[0]  22 107
[0]  34 167
[0]  28 139
[0]  25 126
[0]  21 106
[0]  20 101
[0]  32 162
[0]  13  66
[0]  24 122
[0]  12  61
[0]  29 148
[0]  23 118
[0]  13  67
[0]  35 181
[0]  11  58
[0]  11  58
[0]  35 185
[0]  10  53
[0]  30 159
[0]  26 138
[0]  33 176
[0]  34 182
[0]  32 172
[0]  13  70
[0]  20 108
[0]  26 142
[0]  27 148
[0]  33 181
[0]  10  55
[0]  35 193
[0]  30 167
[0]  21 117
[0]  34 195
[0]  19 110
[0]  19 110
[0]  24 139
[0]  11  64
[0]  33 192
[0]  14  83
[0]  17 101
[0]  28 168
[0]  28 168
[0]  32 194
[0]  11  67
[0]  19 119
[0]  22 138
[0]  31 198
[0]  31 198
[0]  27 173
[0]  31 200
[0]  25 162
[0]  20 131
[0]  17 112
[0]  25 165
[0]  29 192
[0]  20 133
[0]  19 127
[0]  21 141
[0]  20 135
[0]  18 122
[0]  21 143
[0]  29 198
[0]  10  69
[0]  27 187
[0]  24 167
[0]  26 181
[0]  28 197
[0]  23 164
[0]  18 129
[0]  10  72
[0]  15 108
[0]  10  72
[0]  13  94
[0]  26 188
[0]  14 102
[0]  14 103
[0]  24 177
[0]  16 121
[0]  21 164
[0]  17 133
[0]  17 136
[0]  24 192
[0]  16 133
[0]  19 158
[0]  20 173
[0]  11  96
[0]  17 150
[0]  13 116
[0]  20 181
[0]  16 145
[0]  21 191
[0]  21 192
[0]  12 110
[0]  19 175
[0]  12 112
[0]  18 170
[0]  17 164
[0]  11 109
[0]  10 100
[0]  14 140
[0]  15 154
[0]  12 125
[0]  16 168
[0]  10 106
[0]  18 191
[0]  16 171
[0]  12 129
[0]  13 140
[0]  16 173
[0]  14 153
[0]  17 187
[0]  10 110
[0]  18 199
[0]  15 167
[0]  11 123
[0]  14 157
[0]  10 114
[0]  12 137
[0]  17 197
[0]  12 141
[0]  14 165
[0]  15 177
[0]  15 179
[0]  11 137
[0]  11 137
[0]  12 150
[0]  11 142
[0]  14 186
[0]  14 188
[0]  13 175
[0]  12 163
[0]  13 187
[0]  12 178
[0]  12 181
[0]  13 197
[0]  11 169
[0]  11 170
[0]  10 159
[0]  10 167
[0]  11 184
[0]  11 196
[0]  10 183
